 &control
    calculation = 'relax',
    prefix = 'h2o',
    pseudo_dir='../psudos'
 /
 &system
    ibrav =  1, 
    celldm(1) = 15.00, 
    nat =  2, 
    ntyp = 2,
    ecutwfc = 60
 /
 &electrons
    mixing_beta = 0.7
    conv_thr=1.d-8
 /
 &ions
 /
ATOMIC_SPECIES
 Na 22.990 Na.pbe-spn-kjpaw_psl.1.0.0.UPF
 Cl 35.453 Cl.pbe-n-kjpaw_psl.1.0.0.UPF
ATOMIC_POSITIONS (angstrom)
 Na 0.00 0.00 0.00
 Cl 3.00 0.00 0.00
K_POINTS (gamma)
