 &control
    calculation = 'relax',
    prefix = 'h2o',
    pseudo_dir='../psudos'
 /
 &system
    ibrav =  1, 
    celldm(1) = 15.00, 
    nat =  3, 
    ntyp = 2,
    ecutwfc = 60
 /
 &electrons
    mixing_beta = 0.7
    conv_thr=1.d-8
 /
 &ions
 /
ATOMIC_SPECIES
 Cl 35.453 Cl.pbe-n-kjpaw_psl.1.0.0.UPF
 O 16.000  O.pbe-mt.UPF
ATOMIC_POSITIONS (angstrom)
 O 3.0 3.0 3.0
 Cl 4.0 3.0 3.0
 Cl 3.0 4.0 3.0
K_POINTS (gamma)
